NAME : y-40_t.-370.tour
COMMENT : Length = -370
COMMENT : Found by LKH [Keld Helsgaun] Sun Apr 13 17:05:01 2025
TYPE : TOUR
DIMENSION : 40
TOUR_SECTION
1
9
39
30
16
8
29
38
28
18
10
24
5
4
12
33
31
14
2
7
6
37
21
15
23
34
25
13
32
40
3
27
22
26
17
11
35
19
20
36
-1
EOF
